(set-logic QF_S)
(declare-fun H () String)
(declare-fun K () String)
(declare-fun F () String)
(declare-fun E () String)
(declare-fun G () String)
(declare-fun J () String)
(declare-fun N () String)
(assert (= (str.++  H H F H "a" H H F H "b" K "b" K)  (str.++  "a" F G E E H J H J "b" N N "baa") ))
(check-sat)
(get-model)
